NAME : eil101-4
COMMENT : 101-city problem (Christofides/Eilon)
TYPE : CTSP
DIMENSION : 101
SALESMEN : 4
EDGE_WEIGHT_TYPE : EUC_2D
NODE_COORD_SECTION
1 41 49
2 11 14
3 25 21
4 12 24
5 18 18
6 23 3
7 18 24
8 5 5
9 15 19
10 10 20
11 16 22
12 15 10
13 24 12
14 22 27
15 22 22
16 20 20
17 20 26
18 4 18
19 21 24
20 25 24
21 19 21
22 49 11
23 65 35
24 44 17
25 60 12
26 65 20
27 46 13
28 32 12
29 55 20
30 63 23
31 28 18
32 57 29
33 47 16
34 45 20
35 53 12
36 42 7
37 67 5
38 55 5
39 45 10
40 30 5
41 35 17
42 55 60
43 35 69
44 37 56
45 63 65
46 45 65
47 64 42
48 55 54
49 49 73
50 30 60
51 57 68
52 49 58
53 61 52
54 40 60
55 27 69
56 65 55
57 31 67
58 57 48
59 31 52
60 62 77
61 53 52
62 13 52
63 14 37
64 2 60
65 20 65
66 20 50
67 10 43
68 15 60
69 8 56
70 24 58
71 20 40
72 15 47
73 5 30
74 15 30
75 2 48
76 26 52
77 6 38
78 15 77
79 11 31
80 17 34
81 6 68
82 35 35
83 37 47
84 26 35
85 49 42
86 27 43
87 50 35
88 25 30
89 26 27
90 40 25
91 30 25
92 36 26
93 45 30
94 47 47
95 56 39
96 56 37
97 35 40
98 41 37
99 53 43
100 55 45
101 37 31
CTSP_SET_SECTION
1 2 3 4 5 6 7 8 9 10 11 12 13 14 15 16 17 18 19 20 21 -1 
2 22 23 24 25 26 27 28 29 30 31 32 33 34 35 36 37 38 39 40 41 -1
3 42 43 44 45 46 47 48 49 50 51 52 53 54 55 56 57 58 59 60 61 -1
4 62 63 64 65 66 67 68 69 70 71 72 73 74 75 76 77 78 79 80 81 -1
DEPOT_SECTION
1
-1
EOF
